/*********************************************
 * OPL Data
 * Min Cost Cover: data for diet instance
 *********************************************/

I = { "V","M","F"};
J = { "proteins", "iron" , "calcium" };
 
C = [4,10,7];

R = [20, 30, 10];

A = [
 	[  5.0 ,  6.0 ,  5.0 ],
 	[ 15.0 , 10.0 ,  3.0 ],
 	[  4.0 ,  5.0 , 12.0 ]
];
